NAME : census.pruned_global_16.0.tour
COMMENT : Length = 0
TYPE : TOUR
DIMENSION : 68
TOUR_SECTION
1
32
54
45
41
48
43
5
35
38
66
27
9
67
49
62
25
16
6
42
15
12
10
60
68
46
53
40
23
2
7
29
21
20
59
17
28
64
51
56
31
14
39
52
33
34
8
50
47
3
63
37
55
58
65
61
57
44
36
30
26
24
22
19
18
13
11
4
-1
EOF
